NAME: burma14
TYPE: TSP
COMMENT: 14-Staedte in Burma (Zaw Win)
DIMENSION: 14
EDGE_WEIGHT_TYPE: GEO
EDGE_WEIGHT_FORMAT: FUNCTION 
DISPLAY_DATA_TYPE: COORD_DISPLAY
NODE_COORD_SECTION
0 14.00 96.10
1 15.23 94.44
2 20.09 92.54
3 22.39 93.37
4 24.32 97.24
5 21.47 97.00
6 18.04 95.01
7 15.05 98.12
8 16.53 98.38
9 25.12 95.59
10 19.41 97.13
11 20.09 94.55
EOF